pair_coeff     $(v_clay_types + 1) $(v_clay_types + 1) 0.066 3.5 
pair_coeff     $(v_clay_types + 2) $(v_clay_types + 2) 0.07 3.55 
pair_coeff     $(v_clay_types + 3) $(v_clay_types + 3) 0.03 2.5 
pair_coeff     $(v_clay_types + 4) $(v_clay_types + 4) 0.03 2.42 

bond_coeff     $(v_clay_btypes + 1) 268.0 1.529 
bond_coeff     $(v_clay_btypes + 2) 317.0 1.51 
bond_coeff     $(v_clay_btypes + 3) 469.0 1.4 
bond_coeff     $(v_clay_btypes + 4) 340.0 1.09 
bond_coeff     $(v_clay_btypes + 5) 367.0 1.08 

angle_coeff     $(v_clay_atypes + 1) 63.0 114.0 
angle_coeff     $(v_clay_atypes + 2) 70.0 120.0 
angle_coeff     $(v_clay_atypes + 3) 63.0 120.0 
angle_coeff     $(v_clay_atypes + 4) 37.5 110.7 
angle_coeff     $(v_clay_atypes + 5) 35.0 120.0 
angle_coeff     $(v_clay_atypes + 6) 33.0 107.8 
angle_coeff     $(v_clay_atypes + 7) 35.0 109.5 
angle_coeff     $(v_clay_atypes + 8) 40.0 109.5 

dihedral_coeff     $(v_clay_dtypes + 1) 0.0 7.25 0.0 0.0 
dihedral_coeff     $(v_clay_dtypes + 2) 0.0 0.0 0.462 0.0 
dihedral_coeff     $(v_clay_dtypes + 3) 0.0 0.0 0.3 0.0 

improper_coeff     1 2.5 -1 2 
