pair_style        lj/cut/coul/long 12.0
bond_style        harmonic
angle_style       harmonic
dihedral_style    opls
improper_style    cvff
special_bonds     lj/coul 0.0 0.0 0.5
pair_modify       mix geometric

mass           1 12.011 
mass           2 12.011 
mass           3 1.008 
mass           4 1.008 

pair_coeff     1 1 0.066 3.5 
pair_coeff     2 2 0.07 3.55 
pair_coeff     3 3 0.03 2.5 
pair_coeff     4 4 0.03 2.42 

bond_coeff     1 268.0 1.529 
bond_coeff     2 317.0 1.51 
bond_coeff     3 469.0 1.4 
bond_coeff     4 340.0 1.09 
bond_coeff     5 367.0 1.08 

angle_coeff     1 63.0 114.0 
angle_coeff     2 70.0 120.0 
angle_coeff     3 63.0 120.0 
angle_coeff     4 37.5 110.7 
angle_coeff     5 35.0 120.0 
angle_coeff     6 33.0 107.8 
angle_coeff     7 35.0 109.5 
angle_coeff     8 40.0 109.5 

dihedral_coeff     1 0.0 7.25 0.0 0.0 
dihedral_coeff     2 0.0 0.0 0.462 0.0 
dihedral_coeff     3 0.0 0.0 0.3 0.0 

improper_coeff     1 2.5 -1 2 
